data/solutions/recovery/wellformed/moderate/flexible/wellformed_moderate_instance53/50.sol
Elapsed time: 0.03
Upper bound: 4386.0
Planning weighted value: 134941.0
C[0]=4386.0
C[1]=4329.0
C[2]=4189.0
C[3]=3886.0
C[4]=3549.0
y[0]=2
y[1]=4
y[2]=2
y[3]=0
y[4]=1
y[5]=2
y[6]=0
y[7]=1
y[8]=3
y[9]=1
y[10]=4
y[11]=3
y[12]=4
y[13]=1
y[14]=2
y[15]=2
y[16]=4
y[17]=3
y[18]=0
y[19]=3
